column=9;
row=9;
Board=[|0,9,0,5,0,0,0,0,0|0,1,3,0,0,0,0,0,2|0,2,0,0,0,0,0,7,8|0,0,0,6,0,4,0,0,0|0,5,0,0,0,7,2,4,9|0,7,4,1,0,0,3,0,0|0,6,0,0,0,0,0,2,4|0,4,0,0,0,8,6,0,0|0,0,0,0,0,5,0,9,0|];
horizontal=[|0,1,0,1,0,1,0,0|0,0,0,1,0,0,0,0|0,0,0,0,0,0,0,1|0,1,0,0,0,1,0,0|0,1,0,0,0,0,0,0|0,0,0,0,0,0,0,0|1,1,0,0,0,0,0,0|0,0,1,0,1,0,0,0|0,1,0,0,1,0,0,0|];
vertical=[|0,0,0,0,0,0,0,1,1|0,1,0,0,1,0,0,0,0|0,0,0,0,0,0,1,0,1|0,0,0,0,1,0,0,0,0|1,0,0,0,0,0,1,0,0|0,1,0,0,0,0,0,0,0|0,0,0,0,0,0,0,1,1|1,1,1,0,1,0,1,0,0|];
